data;


param FN:= 6;
param D:= 100;
param U_Original:=
         1         1        6.395724e-01
         2         1        2.376947e-01
         3         1       -1.427356e+00
         4         1        1.271126e+00
         5         1        6.213531e-01
         6         1       -3.505809e-02
         7         1       -8.279577e-01
         8         1       -6.838297e-02
         9         1        5.160512e-01
        10         1        1.322877e+00
        11         1        1.898027e+00
        12         1        6.010663e-01
        13         1       -1.456729e-01
        14         1       -1.293974e+00
        15         1        1.001754e-01
        16         1       -3.865881e-01
        17         1       -5.711831e-02
        18         1       -1.305162e+00
        19         1        1.228001e+00
        20         1        1.261904e+00
        21         1        9.930193e-02
        22         1       -1.421127e+00
        23         1        4.820882e-01
        24         1        1.468145e-01
        25         1       -1.410128e+00
        26         1       -3.528922e-01
        27         1        1.757698e+00
        28         1        1.210987e+00
        29         1       -8.725043e-01
        30         1        9.940007e-01
        31         1        3.887744e-01
        32         1        1.977796e+00
        33         1        7.387261e-01
        34         1       -1.395915e+00
        35         1        4.403532e-01
        36         1       -9.123501e-01
        37         1       -1.015752e+00
        38         1        2.311730e-01
        39         1        1.932238e-01
        40         1       -3.777354e-01
        41         1       -1.141391e+00
        42         1       -5.255783e-01
        43         1       -1.100048e+00
        44         1        3.976581e-02
        45         1        1.040658e+00
        46         1       -9.609120e-01
        47         1        9.731511e-01
        48         1       -1.736202e+00
        49         1        3.812353e-01
        50         1       -4.475037e-01
        51         1        2.688197e-01
        52         1       -1.046407e+00
        53         1        6.105258e-01
        54         1       -8.834482e-01
        55         1       -3.461481e-01
        56         1        6.135156e-01
        57         1       -1.307545e+00
        58         1        1.138245e+00
        59         1       -2.214675e+00
        60         1       -3.174258e-01
        61         1       -1.376585e-01
        62         1        1.244852e+00
        63         1       -2.351734e-01
        64         1        1.891556e+00
        65         1        3.357895e-01
        66         1       -4.393013e-01
        67         1        8.792606e-01
        68         1       -8.150115e-01
        69         1       -1.425556e+00
        70         1       -8.882331e-01
        71         1       -1.132572e+00
        72         1        8.080102e-01
        73         1        3.197657e-01
        74         1       -2.506299e-01
        75         1       -1.513646e-01
        76         1       -5.796338e-01
        77         1       -3.591807e-01
        78         1       -1.373695e+00
        79         1       -7.268046e-01
        80         1       -5.644024e-01
        81         1        2.370253e-01
        82         1       -4.330433e-01
        83         1       -6.113656e-01
        84         1       -3.617341e-02
        85         1       -2.809611e-01
        86         1       -3.023240e-01
        87         1        7.410231e-01
        88         1        1.080070e+00
        89         1       -1.188307e-01
        90         1       -6.352750e-01
        91         1        7.762249e-01
        92         1        2.413154e-01
        93         1       -5.866635e-01
        94         1       -1.326675e+00
        95         1        1.742752e-01
        96         1        1.047174e+00
        97         1       -1.519299e-02
        98         1       -7.497594e-01
        99         1        3.036693e-01
       100         1        1.103628e+00
         1         2       -7.260802e-01
         2         2        1.839574e-01
         3         2        1.113758e+00
         4         2       -2.110867e+00
         5         2       -5.300950e-01
         6         2       -3.470106e-01
         7         2       -2.571521e-01
         8         2       -1.878232e-01
         9         2       -5.173416e-01
        10         2       -4.969736e-01
        11         2       -1.688183e-01
        12         2       -2.539235e+00
        13         2       -1.876715e+00
        14         2       -3.298940e-01
        15         2        2.003454e+00
        16         2       -7.605616e-01
        17         2       -1.376477e+00
        18         2        7.591379e-01
        19         2       -4.900921e-02
        20         2        6.986315e-01
        21         2       -1.356410e+00
        22         2       -4.361619e-01
        23         2        1.954289e+00
        24         2       -4.279397e-01
        25         2       -6.539153e-01
        26         2        8.828353e-01
        27         2        2.927884e-01
        28         2        1.138661e-01
        29         2       -1.840310e-02
        30         2        1.440642e-01
        31         2        9.085077e-01
        32         2        2.522176e-01
        33         2        1.258682e-01
        34         2        1.203709e+00
        35         2        5.928472e-01
        36         2        9.857317e-02
        37         2        3.355610e-01
        38         2       -1.899149e+00
        39         2       -1.206370e+00
        40         2        5.507244e-01
        41         2        1.534721e+00
        42         2       -1.031600e+00
        43         2       -2.269905e+00
        44         2       -1.318588e+00
        45         2        2.756445e-01
        46         2        2.279106e-01
        47         2        8.504813e-01
        48         2        4.048838e-01
        49         2       -2.293244e+00
        50         2        7.975590e-02
        51         2        6.448093e-01
        52         2        2.057599e-01
        53         2        5.185230e-01
        54         2        1.414786e-01
        55         2        9.474475e-01
        56         2        1.716364e+00
        57         2        8.966360e-01
        58         2        4.206100e-01
        59         2        2.623022e-01
        60         2        5.958815e-01
        61         2        1.030918e-01
        62         2       -1.415993e+00
        63         2        2.051276e+00
        64         2        6.459416e-02
        65         2       -4.471209e-01
        66         2        6.659622e-02
        67         2        1.214268e+00
        68         2       -6.656085e-01
        69         2       -1.829746e+00
        70         2       -7.923604e-01
        71         2        3.395890e-02
        72         2       -1.157239e+00
        73         2        5.576954e-01
        74         2       -6.699026e-02
        75         2       -1.117407e-01
        76         2        4.982951e-01
        77         2        3.270952e-01
        78         2        1.433734e+00
        79         2        7.831625e-01
        80         2       -1.954581e-01
        81         2       -6.233079e-03
        82         2        5.005718e-01
        83         2       -1.283611e+00
        84         2        5.279003e-01
        85         2        5.946918e-01
        86         2       -3.265268e-01
        87         2        5.292935e-01
        88         2       -1.990760e-01
        89         2       -2.500219e+00
        90         2        2.367699e-01
        91         2        2.280359e+00
        92         2       -2.580794e-01
        93         2        1.108950e+00
        94         2       -6.898115e-02
        95         2       -1.793666e-01
        96         2        1.161517e+00
        97         2        4.731324e-01
        98         2        1.102975e+00
        99         2       -1.002071e+00
       100         2       -2.236257e+00
         1         3        5.975289e-01
         2         3       -9.219012e-02
         3         3       -8.679969e-02
         4         3       -3.094038e-01
         5         3       -1.998044e-02
         6         3       -4.371831e-01
         7         3        8.729970e-02
         8         3        1.334716e+00
         9         3        4.810770e-01
        10         3       -8.539632e-03
        11         3        6.111959e-01
        12         3       -8.237053e-01
        13         3        5.520424e-01
        14         3        4.334030e-01
        15         3       -1.543403e-02
        16         3        1.291557e+00
        17         3        3.298025e-01
        18         3        6.426096e-01
        19         3       -2.193239e+00
        20         3       -6.441874e-01
        21         3       -9.735854e-01
        22         3       -7.014537e-01
        23         3        1.513279e-02
        24         3       -1.591958e-01
        25         3       -4.521447e-01
        26         3       -1.624480e-01
        27         3        2.593741e-01
        28         3        9.445609e-01
        29         3       -1.952211e-01
        30         3       -8.747904e-01
        31         3        4.689134e-01
        32         3       -1.518237e-01
        33         3       -1.352494e+00
        34         3        3.257117e-01
        35         3       -1.605854e-01
        36         3       -4.019951e-02
        37         3       -2.008779e-01
        38         3       -7.317337e-01
        39         3       -6.384803e-02
        40         3        1.685228e+00
        41         3       -1.752194e+00
        42         3       -3.957418e-01
        43         3       -7.147185e-01
        44         3        5.486575e-01
        45         3       -1.434477e+00
        46         3        1.135041e+00
        47         3        5.866846e-01
        48         3       -1.749955e-01
        49         3       -1.687343e-01
        50         3       -1.107384e+00
        51         3        1.647320e+00
        52         3        5.529116e-01
        53         3       -8.193878e-01
        54         3        8.877045e-01
        55         3       -3.719465e-02
        56         3       -1.021090e+00
        57         3        2.664623e-02
        58         3        1.774747e+00
        59         3        1.337790e+00
        60         3       -1.211923e+00
        61         3       -1.936407e+00
        62         3        4.445232e-01
        63         3       -1.192341e+00
        64         3       -4.221199e-01
        65         3       -1.762395e+00
        66         3       -8.600775e-01
        67         3        2.728536e-01
        68         3       -1.078154e+00
        69         3        1.381879e+00
        70         3       -2.157887e+00
        71         3       -1.027469e-01
        72         3        1.575864e+00
        73         3       -2.054040e+00
        74         3       -8.243393e-02
        75         3       -5.857323e-01
        76         3       -8.625569e-01
        77         3       -1.377578e+00
        78         3       -5.970602e-01
        79         3       -1.431560e-01
        80         3       -2.573856e-01
        81         3        1.376600e+00
        82         3       -2.319173e-01
        83         3       -1.660176e+00
        84         3        2.091136e+00
        85         3        2.370766e-01
        86         3       -1.106242e-01
        87         3       -1.584506e+00
        88         3        4.855534e-01
        89         3        6.690087e-02
        90         3        5.310063e-01
        91         3       -1.973438e-02
        92         3        3.915034e-01
        93         3        1.808853e+00
        94         3       -1.198849e+00
        95         3       -4.089721e-01
        96         3       -1.512015e+00
        97         3        1.259799e+00
        98         3        4.465919e-01
        99         3        9.150309e-01
       100         3       -3.524236e-01
         1         4       -6.673085e-01
         2         4        1.133996e+00
         3         4       -8.067051e-01
         4         4       -4.320467e-01
         5         4        1.400828e+00
         6         4        1.314038e+00
         7         4       -1.565084e+00
         8         4       -5.505338e-01
         9         4       -5.437875e-01
        10         4       -1.392393e+00
        11         4       -1.137375e+00
        12         4        1.848196e+00
        13         4        8.676557e-02
        14         4        1.161243e+00
        15         4       -1.787311e-01
        16         4        7.768898e-01
        17         4        6.971197e-01
        18         4        9.614683e-01
        19         4       -5.424705e-01
        20         4        4.123818e-01
        21         4        1.111251e+00
        22         4        5.598557e-01
        23         4       -6.609988e-01
        24         4        6.134847e-01
        25         4        8.087436e-01
        26         4        1.142212e+00
        27         4        1.893927e+00
        28         4       -2.801021e-02
        29         4        1.069979e-01
        30         4        8.496986e-01
        31         4       -1.825968e+00
        32         4       -7.327605e-01
        33         4       -7.395292e-01
        34         4        3.631862e-01
        35         4       -1.082416e+00
        36         4        9.349019e-01
        37         4       -3.203086e-01
        38         4        7.659168e-01
        39         4        6.930399e-01
        40         4       -4.540193e-01
        41         4       -1.643932e+00
        42         4        7.590829e-01
        43         4        7.278353e-03
        44         4       -2.786130e-01
        45         4       -9.612447e-01
        46         4        3.224727e-01
        47         4       -6.793728e-01
        48         4       -4.903765e-01
        49         4       -6.237689e-01
        50         4       -1.322005e+00
        51         4       -1.070147e+00
        52         4       -1.039195e+00
        53         4        2.549916e+00
        54         4       -1.047443e+00
        55         4       -1.349907e+00
        56         4        6.819208e-01
        57         4        9.168598e-01
        58         4        1.859931e-01
        59         4       -9.799030e-01
        60         4       -9.446622e-01
        61         4        3.258646e-01
        62         4       -1.855983e+00
        63         4        1.286088e+00
        64         4       -3.963463e-01
        65         4        7.585985e-01
        66         4        2.313309e-01
        67         4        4.643542e-01
        68         4        7.789439e-01
        69         4        5.183094e-02
        70         4        2.485951e-01
        71         4        1.623001e-01
        72         4        3.792177e-01
        73         4        2.192802e-01
        74         4        1.195538e+00
        75         4       -6.377115e-01
        76         4       -8.954214e-02
        77         4       -4.437535e-01
        78         4       -2.137551e-01
        79         4       -2.439367e+00
        80         4       -1.801844e-01
        81         4       -1.146365e-01
        82         4       -1.467898e+00
        83         4       -2.052125e-01
        84         4       -1.401191e+00
        85         4        9.963700e-02
        86         4        8.607705e-01
        87         4       -7.091069e-01
        88         4       -1.355852e+00
        89         4        1.991521e+00
        90         4       -8.799533e-01
        91         4       -7.583451e-01
        92         4       -3.044197e-01
        93         4       -1.682697e+00
        94         4        1.401358e-01
        95         4       -7.108264e-02
        96         4       -1.565844e+00
        97         4        1.935108e+00
        98         4       -1.415486e+00
        99         4        2.072208e+00
       100         4        1.385214e+00
         1         5        1.202050e+00
         2         5        7.698030e-01
         3         5        2.208818e+00
         4         5        3.744409e-01
         5         5        2.410506e-01
         6         5       -8.175823e-01
         7         5       -7.922169e-01
         8         5       -7.499207e-01
         9         5       -5.448286e-01
        10         5       -4.235783e-01
        11         5       -4.301537e-01
        12         5       -6.843334e-02
        13         5        3.266862e-01
        14         5        1.349303e+00
        15         5       -1.833773e-01
        16         5       -1.215683e+00
        17         5       -6.711663e-01
        18         5        8.673179e-01
        19         5        7.396711e-01
        20         5        1.189356e+00
        21         5        1.528577e+00
        22         5        9.281562e-01
        23         5        3.064663e-01
        24         5       -4.355251e-01
        25         5       -2.420924e-01
        26         5        5.947549e-01
        27         5       -1.813140e-01
        28         5        3.658423e-01
        29         5       -1.600718e-01
        30         5       -9.424032e-01
        31         5       -1.014058e+00
        32         5       -7.955223e-01
        33         5       -1.066637e+00
        34         5        6.797571e-01
        35         5        1.185296e+00
        36         5       -8.868651e-01
        37         5       -2.670150e-01
        38         5       -4.058425e-01
        39         5        1.345984e+00
        40         5       -9.148072e-02
        41         5       -1.698412e+00
        42         5       -8.289299e-01
        43         5        9.793574e-01
        44         5        1.717059e+00
        45         5        1.269465e-02
        46         5        1.004328e+00
        47         5       -1.116132e+00
        48         5        5.634426e-01
        49         5       -2.077772e-01
        50         5        1.683653e+00
        51         5       -1.925828e-01
        52         5       -4.973362e-01
        53         5       -1.432750e-01
        54         5        4.406029e-01
        55         5        1.229477e+00
        56         5       -2.146938e-01
        57         5       -1.533839e+00
        58         5       -2.241830e-01
        59         5       -7.345545e-01
        60         5       -1.422369e+00
        61         5        2.570355e-01
        62         5       -1.084513e+00
        63         5       -6.400595e-01
        64         5       -7.550312e-01
        65         5        1.734653e-01
        66         5        9.263489e-02
        67         5       -3.420993e-01
        68         5       -1.269064e+00
        69         5        4.185327e-01
        70         5       -1.013778e+00
        71         5        1.500249e+00
        72         5        1.175217e+00
        73         5        1.264825e+00
        74         5        8.544025e-01
        75         5       -1.182406e+00
        76         5       -9.977352e-02
        77         5       -1.305022e+00
        78         5       -9.819939e-01
        79         5        1.578621e+00
        80         5       -2.530397e-01
        81         5        7.768452e-01
        82         5        1.975463e-01
        83         5       -8.026546e-01
        84         5       -9.576889e-01
        85         5        1.118669e+00
        86         5        2.449441e-02
        87         5        1.070567e+00
        88         5        9.479051e-01
        89         5        5.797430e-02
        90         5        1.112136e+00
        91         5       -5.927911e-01
        92         5       -5.732841e-01
        93         5        1.163888e-01
        94         5       -1.593694e+00
        95         5       -4.964804e-01
        96         5       -3.473318e-01
        97         5        1.799284e+00
        98         5       -1.334050e+00
        99         5        5.526746e-01
       100         5       -2.902486e-01
;
param X_Original:=
    1       -2.927541e-01
    2       -1.156717e+00
    3       -1.674288e+00
    4        1.034386e+00
    5       -3.186519e-01
    6       -8.068644e-01
    7        1.633857e+00
    8        5.059865e-01
    9        1.344572e-01
   10       -1.269450e-01
   11        1.008645e+00
   12        2.075490e-01
   13        1.068048e-01
   14        7.938056e-01
   15       -2.140748e+00
   16       -9.245619e-01
   17        5.732180e-01
   18        1.610093e+00
   19       -2.558663e+00
   20        1.976389e+00
   21       -1.471837e+00
   22        2.724221e+00
   23       -5.739383e-01
   24        3.227567e-01
   25       -5.223138e-01
   26       -2.111707e+00
   27       -2.258757e-01
   28        4.079911e-01
   29        1.548187e+00
   30        1.401450e+00
   31       -1.813556e+00
   32       -1.481542e+00
   33        1.242865e+00
   34       -9.703391e-01
   35        4.921837e-01
   36       -8.342211e-01
   37       -3.278049e-01
   38       -2.103338e+00
   39        2.356082e+00
   40       -1.669112e+00
   41       -4.666075e-01
   42       -9.282619e-01
   43        2.165189e+00
   44        4.441772e-01
   45        8.929453e-02
   46       -7.306981e-01
   47        1.174183e+00
   48        4.566465e-01
   49        1.544881e-01
   50        1.269430e+00
   51        3.091529e-01
   52       -9.594315e-01
   53       -1.491406e+00
   54       -1.488620e+00
   55       -1.742468e+00
   56       -9.948634e-01
   57        3.333951e-01
   58        2.727325e-01
   59       -2.774141e-01
   60        8.643416e-01
   61       -2.482954e-01
   62        1.579217e+00
   63       -1.540056e+00
   64        6.270788e-01
   65        5.127159e-01
   66       -1.659887e+00
   67       -1.553125e-01
   68       -7.491066e-01
   69       -1.467941e-02
   70        5.704598e-01
   71       -1.087940e+00
   72        1.109972e+00
   73       -1.000742e+00
   74       -1.809258e+00
   75        1.409272e+00
   76        7.107762e-01
   77        1.090281e+00
   78       -3.739811e-01
   79        1.431746e+00
   80       -6.145446e-01
   81       -1.483522e-02
   82        5.735443e-01
   83        8.195893e-01
   84        1.616500e+00
   85        7.031985e-01
   86       -9.867744e-01
   87        3.022353e-01
   88        1.099523e+00
   89       -8.338375e-01
   90       -5.154856e-01
   91        6.574433e-01
   92        1.327744e+00
   93       -5.711851e-01
   94       -8.303634e-01
   95       -6.663933e-01
   96       -3.392738e-01
   97       -5.759367e-01
   98       -6.966688e-01
   99       -2.534172e-01
  100        6.200833e-01
;
param outliervec_original :=
    1    0
    2    1
    3    1
    4    1
    5    1
    6    1
    7    0
    8    1
    9    1
   10    1
   11    1
   12    1
   13    1
   14    1
   15    0
   16    1
   17    1
   18    1
   19    1
   20    1
   21    1
   22    1
   23    1
   24    1
   25    1
   26    1
   27    1
   28    1
   29    1
   30    1
   31    1
   32    0
   33    1
   34    1
   35    1
   36    1
   37    1
   38    1
   39    1
   40    1
   41    1
   42    1
   43    0
   44    0
   45    1
   46    1
   47    1
   48    1
   49    1
   50    1
   51    1
   52    1
   53    0
   54    1
   55    0
   56    1
   57    1
   58    1
   59    1
   60    1
   61    1
   62    0
   63    1
   64    1
   65    1
   66    1
   67    1
   68    1
   69    1
   70    1
   71    1
   72    1
   73    1
   74    1
   75    1
   76    1
   77    1
   78    1
   79    1
   80    1
   81    1
   82    1
   83    1
   84    0
   85    1
   86    1
   87    1
   88    1
   89    1
   90    1
   91    1
   92    1
   93    1
   94    1
   95    1
   96    1
   97    1
   98    1
   99    1
  100    1
;
param d:= 55;
param r:=5;
param p:=0.900000;
param M:=1000;
param U:=
         1         1        2.376947e-01
         2         1       -1.427356e+00
         3         1        1.271126e+00
         4         1        6.213531e-01
         5         1       -3.505809e-02
         6         1       -8.279577e-01
         7         1       -6.838297e-02
         8         1        6.010663e-01
         9         1       -1.456729e-01
        10         1       -5.711831e-02
        11         1        9.930193e-02
        12         1        4.820882e-01
        13         1        1.468145e-01
        14         1       -1.410128e+00
        15         1       -3.528922e-01
        16         1        1.757698e+00
        17         1        1.210987e+00
        18         1        7.387261e-01
        19         1        4.403532e-01
        20         1       -9.123501e-01
        21         1       -1.015752e+00
        22         1        3.976581e-02
        23         1       -9.609120e-01
        24         1        9.731511e-01
        25         1        2.688197e-01
        26         1        6.105258e-01
        27         1        6.135156e-01
        28         1        1.138245e+00
        29         1       -2.214675e+00
        30         1       -3.174258e-01
        31         1       -1.376585e-01
        32         1       -2.351734e-01
        33         1        8.792606e-01
        34         1       -8.150115e-01
        35         1       -1.425556e+00
        36         1       -8.882331e-01
        37         1       -1.132572e+00
        38         1        3.197657e-01
        39         1       -2.506299e-01
        40         1       -1.513646e-01
        41         1       -3.591807e-01
        42         1       -1.373695e+00
        43         1       -5.644024e-01
        44         1        2.370253e-01
        45         1       -4.330433e-01
        46         1       -6.113656e-01
        47         1       -3.617341e-02
        48         1       -3.023240e-01
        49         1        7.410231e-01
        50         1        1.080070e+00
        51         1       -1.188307e-01
        52         1       -6.352750e-01
        53         1        7.762249e-01
        54         1        2.413154e-01
        55         1        1.103628e+00
         1         2        1.839574e-01
         2         2        1.113758e+00
         3         2       -2.110867e+00
         4         2       -5.300950e-01
         5         2       -3.470106e-01
         6         2       -2.571521e-01
         7         2       -1.878232e-01
         8         2       -2.539235e+00
         9         2       -1.876715e+00
        10         2       -1.376477e+00
        11         2       -1.356410e+00
        12         2        1.954289e+00
        13         2       -4.279397e-01
        14         2       -6.539153e-01
        15         2        8.828353e-01
        16         2        2.927884e-01
        17         2        1.138661e-01
        18         2        1.258682e-01
        19         2        5.928472e-01
        20         2        9.857317e-02
        21         2        3.355610e-01
        22         2       -1.318588e+00
        23         2        2.279106e-01
        24         2        8.504813e-01
        25         2        6.448093e-01
        26         2        5.185230e-01
        27         2        1.716364e+00
        28         2        4.206100e-01
        29         2        2.623022e-01
        30         2        5.958815e-01
        31         2        1.030918e-01
        32         2        2.051276e+00
        33         2        1.214268e+00
        34         2       -6.656085e-01
        35         2       -1.829746e+00
        36         2       -7.923604e-01
        37         2        3.395890e-02
        38         2        5.576954e-01
        39         2       -6.699026e-02
        40         2       -1.117407e-01
        41         2        3.270952e-01
        42         2        1.433734e+00
        43         2       -1.954581e-01
        44         2       -6.233079e-03
        45         2        5.005718e-01
        46         2       -1.283611e+00
        47         2        5.279003e-01
        48         2       -3.265268e-01
        49         2        5.292935e-01
        50         2       -1.990760e-01
        51         2       -2.500219e+00
        52         2        2.367699e-01
        53         2        2.280359e+00
        54         2       -2.580794e-01
        55         2       -2.236257e+00
         1         3       -9.219012e-02
         2         3       -8.679969e-02
         3         3       -3.094038e-01
         4         3       -1.998044e-02
         5         3       -4.371831e-01
         6         3        8.729970e-02
         7         3        1.334716e+00
         8         3       -8.237053e-01
         9         3        5.520424e-01
        10         3        3.298025e-01
        11         3       -9.735854e-01
        12         3        1.513279e-02
        13         3       -1.591958e-01
        14         3       -4.521447e-01
        15         3       -1.624480e-01
        16         3        2.593741e-01
        17         3        9.445609e-01
        18         3       -1.352494e+00
        19         3       -1.605854e-01
        20         3       -4.019951e-02
        21         3       -2.008779e-01
        22         3        5.486575e-01
        23         3        1.135041e+00
        24         3        5.866846e-01
        25         3        1.647320e+00
        26         3       -8.193878e-01
        27         3       -1.021090e+00
        28         3        1.774747e+00
        29         3        1.337790e+00
        30         3       -1.211923e+00
        31         3       -1.936407e+00
        32         3       -1.192341e+00
        33         3        2.728536e-01
        34         3       -1.078154e+00
        35         3        1.381879e+00
        36         3       -2.157887e+00
        37         3       -1.027469e-01
        38         3       -2.054040e+00
        39         3       -8.243393e-02
        40         3       -5.857323e-01
        41         3       -1.377578e+00
        42         3       -5.970602e-01
        43         3       -2.573856e-01
        44         3        1.376600e+00
        45         3       -2.319173e-01
        46         3       -1.660176e+00
        47         3        2.091136e+00
        48         3       -1.106242e-01
        49         3       -1.584506e+00
        50         3        4.855534e-01
        51         3        6.690087e-02
        52         3        5.310063e-01
        53         3       -1.973438e-02
        54         3        3.915034e-01
        55         3       -3.524236e-01
         1         4        1.133996e+00
         2         4       -8.067051e-01
         3         4       -4.320467e-01
         4         4        1.400828e+00
         5         4        1.314038e+00
         6         4       -1.565084e+00
         7         4       -5.505338e-01
         8         4        1.848196e+00
         9         4        8.676557e-02
        10         4        6.971197e-01
        11         4        1.111251e+00
        12         4       -6.609988e-01
        13         4        6.134847e-01
        14         4        8.087436e-01
        15         4        1.142212e+00
        16         4        1.893927e+00
        17         4       -2.801021e-02
        18         4       -7.395292e-01
        19         4       -1.082416e+00
        20         4        9.349019e-01
        21         4       -3.203086e-01
        22         4       -2.786130e-01
        23         4        3.224727e-01
        24         4       -6.793728e-01
        25         4       -1.070147e+00
        26         4        2.549916e+00
        27         4        6.819208e-01
        28         4        1.859931e-01
        29         4       -9.799030e-01
        30         4       -9.446622e-01
        31         4        3.258646e-01
        32         4        1.286088e+00
        33         4        4.643542e-01
        34         4        7.789439e-01
        35         4        5.183094e-02
        36         4        2.485951e-01
        37         4        1.623001e-01
        38         4        2.192802e-01
        39         4        1.195538e+00
        40         4       -6.377115e-01
        41         4       -4.437535e-01
        42         4       -2.137551e-01
        43         4       -1.801844e-01
        44         4       -1.146365e-01
        45         4       -1.467898e+00
        46         4       -2.052125e-01
        47         4       -1.401191e+00
        48         4        8.607705e-01
        49         4       -7.091069e-01
        50         4       -1.355852e+00
        51         4        1.991521e+00
        52         4       -8.799533e-01
        53         4       -7.583451e-01
        54         4       -3.044197e-01
        55         4        1.385214e+00
         1         5        7.698030e-01
         2         5        2.208818e+00
         3         5        3.744409e-01
         4         5        2.410506e-01
         5         5       -8.175823e-01
         6         5       -7.922169e-01
         7         5       -7.499207e-01
         8         5       -6.843334e-02
         9         5        3.266862e-01
        10         5       -6.711663e-01
        11         5        1.528577e+00
        12         5        3.064663e-01
        13         5       -4.355251e-01
        14         5       -2.420924e-01
        15         5        5.947549e-01
        16         5       -1.813140e-01
        17         5        3.658423e-01
        18         5       -1.066637e+00
        19         5        1.185296e+00
        20         5       -8.868651e-01
        21         5       -2.670150e-01
        22         5        1.717059e+00
        23         5        1.004328e+00
        24         5       -1.116132e+00
        25         5       -1.925828e-01
        26         5       -1.432750e-01
        27         5       -2.146938e-01
        28         5       -2.241830e-01
        29         5       -7.345545e-01
        30         5       -1.422369e+00
        31         5        2.570355e-01
        32         5       -6.400595e-01
        33         5       -3.420993e-01
        34         5       -1.269064e+00
        35         5        4.185327e-01
        36         5       -1.013778e+00
        37         5        1.500249e+00
        38         5        1.264825e+00
        39         5        8.544025e-01
        40         5       -1.182406e+00
        41         5       -1.305022e+00
        42         5       -9.819939e-01
        43         5       -2.530397e-01
        44         5        7.768452e-01
        45         5        1.975463e-01
        46         5       -8.026546e-01
        47         5       -9.576889e-01
        48         5        2.449441e-02
        49         5        1.070567e+00
        50         5        9.479051e-01
        51         5        5.797430e-02
        52         5        1.112136e+00
        53         5       -5.927911e-01
        54         5       -5.732841e-01
        55         5       -2.902486e-01
;

param theta:=
    1       -8.609512e-01
    2       -1.089199e+00
    3        6.924343e-01
    4        2.167004e-02
    5       -7.755483e-01
;
param X_true:=
    1       -1.041291e+00
    2       -1.774850e+00
    3        6.907750e-01
    4       -1.280015e-01
    5        7.679760e-01
    6        1.633857e+00
    7        1.757324e+00
    8        1.771005e+00
    9        2.300305e+00
   10        2.312428e+00
   11       -4.436427e-01
   12       -2.785188e+00
   13        5.805436e-01
   14        1.818495e+00
   15       -1.206754e+00
   16       -1.470938e+00
   17       -7.969125e-01
   18       -8.984126e-01
   19       -2.078756e+00
   20        1.358354e+00
   21        5.700677e-01
   22        4.441772e-01
   23        5.930826e-01
   24       -5.070457e-01
   25        3.330618e-01
   26       -1.491406e+00
   27       -2.923424e+00
   28       -3.131055e-02
   29        3.095807e+00
   30       -1.322774e-01
   31       -1.526887e+00
   32       -2.333126e+00
   33       -1.615269e+00
   34        1.681214e+00
   35        3.853682e+00
   36        9.251888e-01
   37       -2.930427e-01
   38       -3.281213e+00
   39       -4.050573e-01
   40        7.496380e-01
   41        1.574472e-03
   42       -3.541046e-02
   43        7.129329e-01
   44        1.509619e-01
   45       -5.179966e-01
   46        1.392951e+00
   47        1.616500e+00
   48        5.389951e-01
   49       -3.157300e+00
   50       -1.141368e+00
   51        2.870061e+00
   52       -2.248458e-01
   53       -2.722416e+00
   54        7.824421e-01
   55        1.496648e+00
;
param X:=
    1       -1.156717e+00
    2       -1.674288e+00
    3        1.034386e+00
    4       -3.186519e-01
    5       -8.068644e-01
    6        1.633857e+00
    7        5.059865e-01
    8        2.075490e-01
    9        1.068048e-01
   10        5.732180e-01
   11       -1.471837e+00
   12       -5.739383e-01
   13        3.227567e-01
   14       -5.223138e-01
   15       -2.111707e+00
   16       -2.258757e-01
   17        4.079911e-01
   18        1.242865e+00
   19        4.921837e-01
   20       -8.342211e-01
   21       -3.278049e-01
   22        4.441772e-01
   23       -7.306981e-01
   24        1.174183e+00
   25        3.091529e-01
   26       -1.491406e+00
   27       -9.948634e-01
   28        2.727325e-01
   29       -2.774141e-01
   30        8.643416e-01
   31       -2.482954e-01
   32       -1.540056e+00
   33       -1.553125e-01
   34       -7.491066e-01
   35       -1.467941e-02
   36        5.704598e-01
   37       -1.087940e+00
   38       -1.000742e+00
   39       -1.809258e+00
   40        1.409272e+00
   41        1.090281e+00
   42       -3.739811e-01
   43       -6.145446e-01
   44       -1.483522e-02
   45        5.735443e-01
   46        8.195893e-01
   47        1.616500e+00
   48       -9.867744e-01
   49        3.022353e-01
   50        1.099523e+00
   51       -8.338375e-01
   52       -5.154856e-01
   53        6.574433e-01
   54        1.327744e+00
   55        6.200833e-01
;
param outliervec:=
    1    1
    2    1
    3    1
    4    1
    5    1
    6    0
    7    1
    8    1
    9    1
   10    1
   11    1
   12    1
   13    1
   14    1
   15    1
   16    1
   17    1
   18    1
   19    1
   20    1
   21    1
   22    0
   23    1
   24    1
   25    1
   26    0
   27    1
   28    1
   29    1
   30    1
   31    1
   32    1
   33    1
   34    1
   35    1
   36    1
   37    1
   38    1
   39    1
   40    1
   41    1
   42    1
   43    1
   44    1
   45    1
   46    1
   47    0
   48    1
   49    1
   50    1
   51    1
   52    1
   53    1
   54    1
   55    1
; 
param greedy_time :=         2.451364e-01
;